proyfinal/src/viki/013/experimentInOfficeAgust.take6.output/15b14ef4-ff35-46e0-931b-145672db55df.als.dat
{'cnf.clauses': '118081',
 'cnf.totvars': '69608',
 'conflict literals': '34',
 'conflicts': '14',
 'decisions': '8687',
 'memused.mb': '15.20',
 'outcome': 'UNSAT',
 'propagations': '37596',
 'restarts': '1',
 'solver.msecs': 27,
 'task.msecs': 80}
