proyfinal/src/viki/013/experimentInOfficeAgust.take6.output/15b14ef4-ff35-46e0-931b-145672db55df.als.out
Reading from standard input... Use '--help' for help.
============================[ Problem Statistics ]=============================
|                                                                             |
|  Number of variables:         69608                                         |
|  Number of clauses:          118081                                         |
|  Parse time:                   0.02 s                                       |
|                                                                             |
============================[ Search Statistics ]==============================
| Conflicts |          ORIGINAL         |          LEARNT          | Progress |
|           |    Vars  Clauses Literals |    Limit  Clauses Lit/Cl |          |
===============================================================================
===============================================================================
restarts              : 1
conflicts             : 14             (515 /sec)
decisions             : 8687           (0.00 % random) (319563 /sec)
propagations          : 37596          (1383019 /sec)
conflict literals     : 34             (0.00 % deleted)
Memory used           : 15.20 MB
CPU time              : 0.027184 s

UNSATISFIABLE
